(set-info :smt-lib-version 2.6)
(set-logic QF_BV)
(set-info :status unsat)
(set-info :category "industrial")
(set-info :source |
  Generated using using the Low-Level Bounded Model Checker LLBMC.
  C files used in the paper: Florian Merz, Stephan Falke, Carsten Sinz: LLBMC: Bounded Model Checking of C and C++ Programs Using a Compiler IR. VSTTE 2012: 146-161
|)
(declare-fun nX_0x18bde30 () (_ BitVec 32))
(assert
(let ((?x1 (_ bv0 32)))
(let ((?x2 (_ bv1 32)))
(let ((?x3 (_ bv2 32)))
(let ((?x4 (_ bv4 32)))
(let ((?x5 (_ bv8 32)))
(let ((?x6 (_ bv16 32)))
(let ((?x7 (_ bv32 32)))
(let ((?x8 (_ bv64 32)))
(let ((?x9 (_ bv128 32)))
(let ((?x10 (_ bv255 32)))
(let ((?x11 (_ bv256 32)))
(let ((?x12 (_ bv512 32)))
(let ((?x13 (_ bv1024 32)))
(let ((?x14 (_ bv2048 32)))
(let ((?x15 (_ bv3855 32)))
(let ((?x16 (_ bv4096 32)))
(let ((?x17 (_ bv8192 32)))
(let ((?x18 (_ bv13107 32)))
(let ((?x19 (_ bv16384 32)))
(let ((?x20 (_ bv21845 32)))
(let ((?x21 (_ bv32768 32)))
(let (($x22 false))
(let ((?x23 nX_0x18bde30))
(let ((?x24 ((_ extract 15 0) ?x23)))
(let ((?x25 ((_ zero_extend 16) ?x24)))
(let ((?x26 (bvand ?x25 ?x2)))
(let (($x27 (distinct ?x26 ?x1)))
(let ((?x28 (ite $x27 (_ bv1 1) (_ bv0 1))))
(let ((?x29 ((_ zero_extend 16) ?x24)))
(let ((?x30 (bvand ?x29 ?x3)))
(let (($x31 (distinct ?x30 ?x1)))
(let ((?x32 (ite $x31 (_ bv1 1) (_ bv0 1))))
(let (($x33 (= ?x32 (_ bv1 1))))
(let ((?x34 (ite $x33 ?x2 ?x1)))
(let (($x35 (= ?x32 (_ bv1 1))))
(let ((?x36 (ite $x35 ?x3 ?x2)))
(let (($x37 (= ?x28 (_ bv1 1))))
(let ((?x38 (ite $x37 ?x36 ?x34)))
(let ((?x39 ((_ extract 15 0) ?x38)))
(let ((?x40 ((_ zero_extend 16) ?x24)))
(let ((?x41 (bvand ?x40 ?x4)))
(let (($x42 (distinct ?x41 ?x1)))
(let ((?x43 (ite $x42 (_ bv1 1) (_ bv0 1))))
(let ((?x44 ((_ zero_extend 16) ?x39)))
(let ((?x45 (bvadd ?x44 ?x2)))
(let (($x46 (= ?x43 (_ bv1 1))))
(let ((?x47 (ite $x46 ?x45 ?x44)))
(let ((?x48 ((_ extract 31 31) ?x44)))
(let ((?x49 ((_ extract 31 31) ?x2)))
(let ((?x50 (bvadd ?x44 ?x2)))
(let ((?x51 ((_ extract 31 31) ?x50)))
(let ((?x52 (bvnot ?x51)))
(let ((?x53 (bvand ?x48 ?x49)))
(let ((?x54 (bvor ?x48 ?x49)))
(let ((?x55 (bvnot ?x54)))
(let ((?x56 (bvand ?x53 ?x52)))
(let ((?x57 (bvand ?x55 ?x51)))
(let ((?x58 (bvor ?x56 ?x57)))
(let (($x59 (= ?x58 (_ bv1 1))))
(let (($x60 (= ?x43 (_ bv1 1))))
(let (($x61 (ite $x60 $x59 $x22)))
(let (($x62 (not $x61)))
(let (($x63 (not $x62)))
(let ((?x64 ((_ extract 15 0) ?x47)))
(let ((?x65 ((_ zero_extend 16) ?x24)))
(let ((?x66 (bvand ?x65 ?x5)))
(let (($x67 (distinct ?x66 ?x1)))
(let ((?x68 (ite $x67 (_ bv1 1) (_ bv0 1))))
(let ((?x69 ((_ zero_extend 16) ?x64)))
(let ((?x70 (bvadd ?x69 ?x2)))
(let (($x71 (= ?x68 (_ bv1 1))))
(let ((?x72 (ite $x71 ?x70 ?x69)))
(let ((?x73 ((_ extract 31 31) ?x69)))
(let ((?x74 ((_ extract 31 31) ?x2)))
(let ((?x75 (bvadd ?x69 ?x2)))
(let ((?x76 ((_ extract 31 31) ?x75)))
(let ((?x77 (bvnot ?x76)))
(let ((?x78 (bvand ?x73 ?x74)))
(let ((?x79 (bvor ?x73 ?x74)))
(let ((?x80 (bvnot ?x79)))
(let ((?x81 (bvand ?x78 ?x77)))
(let ((?x82 (bvand ?x80 ?x76)))
(let ((?x83 (bvor ?x81 ?x82)))
(let (($x84 (= ?x83 (_ bv1 1))))
(let (($x85 (= ?x68 (_ bv1 1))))
(let (($x86 (ite $x85 $x84 $x22)))
(let (($x87 (not $x86)))
(let (($x88 (or $x61 $x87)))
(let (($x89 (not $x88)))
(let (($x90 (or $x63 $x89)))
(let (($x91 (and $x62 $x87)))
(let ((?x92 ((_ extract 15 0) ?x72)))
(let ((?x93 ((_ zero_extend 16) ?x24)))
(let ((?x94 (bvand ?x93 ?x6)))
(let (($x95 (distinct ?x94 ?x1)))
(let ((?x96 (ite $x95 (_ bv1 1) (_ bv0 1))))
(let ((?x97 ((_ zero_extend 16) ?x92)))
(let ((?x98 (bvadd ?x97 ?x2)))
(let (($x99 (= ?x96 (_ bv1 1))))
(let ((?x100 (ite $x99 ?x98 ?x97)))
(let ((?x101 ((_ extract 31 31) ?x97)))
(let ((?x102 ((_ extract 31 31) ?x2)))
(let ((?x103 (bvadd ?x97 ?x2)))
(let ((?x104 ((_ extract 31 31) ?x103)))
(let ((?x105 (bvnot ?x104)))
(let ((?x106 (bvand ?x101 ?x102)))
(let ((?x107 (bvor ?x101 ?x102)))
(let ((?x108 (bvnot ?x107)))
(let ((?x109 (bvand ?x106 ?x105)))
(let ((?x110 (bvand ?x108 ?x104)))
(let ((?x111 (bvor ?x109 ?x110)))
(let (($x112 (= ?x111 (_ bv1 1))))
(let (($x113 (= ?x96 (_ bv1 1))))
(let (($x114 (ite $x113 $x112 $x22)))
(let (($x115 (not $x114)))
(let (($x116 (not $x91)))
(let (($x117 (or $x116 $x115)))
(let (($x118 (not $x117)))
(let (($x119 (or $x90 $x118)))
(let (($x120 (and $x91 $x115)))
(let ((?x121 ((_ extract 15 0) ?x100)))
(let ((?x122 ((_ zero_extend 16) ?x24)))
(let ((?x123 (bvand ?x122 ?x7)))
(let (($x124 (distinct ?x123 ?x1)))
(let ((?x125 (ite $x124 (_ bv1 1) (_ bv0 1))))
(let ((?x126 ((_ zero_extend 16) ?x121)))
(let ((?x127 (bvadd ?x126 ?x2)))
(let (($x128 (= ?x125 (_ bv1 1))))
(let ((?x129 (ite $x128 ?x127 ?x126)))
(let ((?x130 ((_ extract 31 31) ?x126)))
(let ((?x131 ((_ extract 31 31) ?x2)))
(let ((?x132 (bvadd ?x126 ?x2)))
(let ((?x133 ((_ extract 31 31) ?x132)))
(let ((?x134 (bvnot ?x133)))
(let ((?x135 (bvand ?x130 ?x131)))
(let ((?x136 (bvor ?x130 ?x131)))
(let ((?x137 (bvnot ?x136)))
(let ((?x138 (bvand ?x135 ?x134)))
(let ((?x139 (bvand ?x137 ?x133)))
(let ((?x140 (bvor ?x138 ?x139)))
(let (($x141 (= ?x140 (_ bv1 1))))
(let (($x142 (= ?x125 (_ bv1 1))))
(let (($x143 (ite $x142 $x141 $x22)))
(let (($x144 (not $x143)))
(let (($x145 (not $x120)))
(let (($x146 (or $x145 $x144)))
(let (($x147 (not $x146)))
(let (($x148 (or $x119 $x147)))
(let (($x149 (and $x120 $x144)))
(let ((?x150 ((_ extract 15 0) ?x129)))
(let ((?x151 ((_ zero_extend 16) ?x24)))
(let ((?x152 (bvand ?x151 ?x8)))
(let (($x153 (distinct ?x152 ?x1)))
(let ((?x154 (ite $x153 (_ bv1 1) (_ bv0 1))))
(let ((?x155 ((_ zero_extend 16) ?x150)))
(let ((?x156 (bvadd ?x155 ?x2)))
(let (($x157 (= ?x154 (_ bv1 1))))
(let ((?x158 (ite $x157 ?x156 ?x155)))
(let ((?x159 ((_ extract 31 31) ?x155)))
(let ((?x160 ((_ extract 31 31) ?x2)))
(let ((?x161 (bvadd ?x155 ?x2)))
(let ((?x162 ((_ extract 31 31) ?x161)))
(let ((?x163 (bvnot ?x162)))
(let ((?x164 (bvand ?x159 ?x160)))
(let ((?x165 (bvor ?x159 ?x160)))
(let ((?x166 (bvnot ?x165)))
(let ((?x167 (bvand ?x164 ?x163)))
(let ((?x168 (bvand ?x166 ?x162)))
(let ((?x169 (bvor ?x167 ?x168)))
(let (($x170 (= ?x169 (_ bv1 1))))
(let (($x171 (= ?x154 (_ bv1 1))))
(let (($x172 (ite $x171 $x170 $x22)))
(let (($x173 (not $x172)))
(let (($x174 (not $x149)))
(let (($x175 (or $x174 $x173)))
(let (($x176 (not $x175)))
(let (($x177 (or $x148 $x176)))
(let (($x178 (and $x149 $x173)))
(let ((?x179 ((_ extract 15 0) ?x158)))
(let ((?x180 ((_ zero_extend 16) ?x24)))
(let ((?x181 (bvand ?x180 ?x9)))
(let (($x182 (distinct ?x181 ?x1)))
(let ((?x183 (ite $x182 (_ bv1 1) (_ bv0 1))))
(let ((?x184 ((_ zero_extend 16) ?x179)))
(let ((?x185 (bvadd ?x184 ?x2)))
(let (($x186 (= ?x183 (_ bv1 1))))
(let ((?x187 (ite $x186 ?x185 ?x184)))
(let ((?x188 ((_ extract 31 31) ?x184)))
(let ((?x189 ((_ extract 31 31) ?x2)))
(let ((?x190 (bvadd ?x184 ?x2)))
(let ((?x191 ((_ extract 31 31) ?x190)))
(let ((?x192 (bvnot ?x191)))
(let ((?x193 (bvand ?x188 ?x189)))
(let ((?x194 (bvor ?x188 ?x189)))
(let ((?x195 (bvnot ?x194)))
(let ((?x196 (bvand ?x193 ?x192)))
(let ((?x197 (bvand ?x195 ?x191)))
(let ((?x198 (bvor ?x196 ?x197)))
(let (($x199 (= ?x198 (_ bv1 1))))
(let (($x200 (= ?x183 (_ bv1 1))))
(let (($x201 (ite $x200 $x199 $x22)))
(let (($x202 (not $x201)))
(let (($x203 (not $x178)))
(let (($x204 (or $x203 $x202)))
(let (($x205 (not $x204)))
(let (($x206 (or $x177 $x205)))
(let (($x207 (and $x178 $x202)))
(let ((?x208 ((_ extract 15 0) ?x187)))
(let ((?x209 ((_ zero_extend 16) ?x24)))
(let ((?x210 (bvand ?x209 ?x11)))
(let (($x211 (distinct ?x210 ?x1)))
(let ((?x212 (ite $x211 (_ bv1 1) (_ bv0 1))))
(let ((?x213 ((_ zero_extend 16) ?x208)))
(let ((?x214 (bvadd ?x213 ?x2)))
(let (($x215 (= ?x212 (_ bv1 1))))
(let ((?x216 (ite $x215 ?x214 ?x213)))
(let ((?x217 ((_ extract 31 31) ?x213)))
(let ((?x218 ((_ extract 31 31) ?x2)))
(let ((?x219 (bvadd ?x213 ?x2)))
(let ((?x220 ((_ extract 31 31) ?x219)))
(let ((?x221 (bvnot ?x220)))
(let ((?x222 (bvand ?x217 ?x218)))
(let ((?x223 (bvor ?x217 ?x218)))
(let ((?x224 (bvnot ?x223)))
(let ((?x225 (bvand ?x222 ?x221)))
(let ((?x226 (bvand ?x224 ?x220)))
(let ((?x227 (bvor ?x225 ?x226)))
(let (($x228 (= ?x227 (_ bv1 1))))
(let (($x229 (= ?x212 (_ bv1 1))))
(let (($x230 (ite $x229 $x228 $x22)))
(let (($x231 (not $x230)))
(let (($x232 (not $x207)))
(let (($x233 (or $x232 $x231)))
(let (($x234 (not $x233)))
(let (($x235 (or $x206 $x234)))
(let (($x236 (and $x207 $x231)))
(let ((?x237 ((_ extract 15 0) ?x216)))
(let ((?x238 ((_ zero_extend 16) ?x24)))
(let ((?x239 (bvand ?x238 ?x12)))
(let (($x240 (distinct ?x239 ?x1)))
(let ((?x241 (ite $x240 (_ bv1 1) (_ bv0 1))))
(let ((?x242 ((_ zero_extend 16) ?x237)))
(let ((?x243 (bvadd ?x242 ?x2)))
(let (($x244 (= ?x241 (_ bv1 1))))
(let ((?x245 (ite $x244 ?x243 ?x242)))
(let ((?x246 ((_ extract 31 31) ?x242)))
(let ((?x247 ((_ extract 31 31) ?x2)))
(let ((?x248 (bvadd ?x242 ?x2)))
(let ((?x249 ((_ extract 31 31) ?x248)))
(let ((?x250 (bvnot ?x249)))
(let ((?x251 (bvand ?x246 ?x247)))
(let ((?x252 (bvor ?x246 ?x247)))
(let ((?x253 (bvnot ?x252)))
(let ((?x254 (bvand ?x251 ?x250)))
(let ((?x255 (bvand ?x253 ?x249)))
(let ((?x256 (bvor ?x254 ?x255)))
(let (($x257 (= ?x256 (_ bv1 1))))
(let (($x258 (= ?x241 (_ bv1 1))))
(let (($x259 (ite $x258 $x257 $x22)))
(let (($x260 (not $x259)))
(let (($x261 (not $x236)))
(let (($x262 (or $x261 $x260)))
(let (($x263 (not $x262)))
(let (($x264 (or $x235 $x263)))
(let (($x265 (and $x236 $x260)))
(let ((?x266 ((_ extract 15 0) ?x245)))
(let ((?x267 ((_ zero_extend 16) ?x24)))
(let ((?x268 (bvand ?x267 ?x13)))
(let (($x269 (distinct ?x268 ?x1)))
(let ((?x270 (ite $x269 (_ bv1 1) (_ bv0 1))))
(let ((?x271 ((_ zero_extend 16) ?x266)))
(let ((?x272 (bvadd ?x271 ?x2)))
(let (($x273 (= ?x270 (_ bv1 1))))
(let ((?x274 (ite $x273 ?x272 ?x271)))
(let ((?x275 ((_ extract 31 31) ?x271)))
(let ((?x276 ((_ extract 31 31) ?x2)))
(let ((?x277 (bvadd ?x271 ?x2)))
(let ((?x278 ((_ extract 31 31) ?x277)))
(let ((?x279 (bvnot ?x278)))
(let ((?x280 (bvand ?x275 ?x276)))
(let ((?x281 (bvor ?x275 ?x276)))
(let ((?x282 (bvnot ?x281)))
(let ((?x283 (bvand ?x280 ?x279)))
(let ((?x284 (bvand ?x282 ?x278)))
(let ((?x285 (bvor ?x283 ?x284)))
(let (($x286 (= ?x285 (_ bv1 1))))
(let (($x287 (= ?x270 (_ bv1 1))))
(let (($x288 (ite $x287 $x286 $x22)))
(let (($x289 (not $x288)))
(let (($x290 (not $x265)))
(let (($x291 (or $x290 $x289)))
(let (($x292 (not $x291)))
(let (($x293 (or $x264 $x292)))
(let (($x294 (and $x265 $x289)))
(let ((?x295 ((_ extract 15 0) ?x274)))
(let ((?x296 ((_ zero_extend 16) ?x24)))
(let ((?x297 (bvand ?x296 ?x14)))
(let (($x298 (distinct ?x297 ?x1)))
(let ((?x299 (ite $x298 (_ bv1 1) (_ bv0 1))))
(let ((?x300 ((_ zero_extend 16) ?x295)))
(let ((?x301 (bvadd ?x300 ?x2)))
(let (($x302 (= ?x299 (_ bv1 1))))
(let ((?x303 (ite $x302 ?x301 ?x300)))
(let ((?x304 ((_ extract 31 31) ?x300)))
(let ((?x305 ((_ extract 31 31) ?x2)))
(let ((?x306 (bvadd ?x300 ?x2)))
(let ((?x307 ((_ extract 31 31) ?x306)))
(let ((?x308 (bvnot ?x307)))
(let ((?x309 (bvand ?x304 ?x305)))
(let ((?x310 (bvor ?x304 ?x305)))
(let ((?x311 (bvnot ?x310)))
(let ((?x312 (bvand ?x309 ?x308)))
(let ((?x313 (bvand ?x311 ?x307)))
(let ((?x314 (bvor ?x312 ?x313)))
(let (($x315 (= ?x314 (_ bv1 1))))
(let (($x316 (= ?x299 (_ bv1 1))))
(let (($x317 (ite $x316 $x315 $x22)))
(let (($x318 (not $x317)))
(let (($x319 (not $x294)))
(let (($x320 (or $x319 $x318)))
(let (($x321 (not $x320)))
(let (($x322 (or $x293 $x321)))
(let (($x323 (and $x294 $x318)))
(let ((?x324 ((_ extract 15 0) ?x303)))
(let ((?x325 ((_ zero_extend 16) ?x24)))
(let ((?x326 (bvand ?x325 ?x16)))
(let (($x327 (distinct ?x326 ?x1)))
(let ((?x328 (ite $x327 (_ bv1 1) (_ bv0 1))))
(let ((?x329 ((_ zero_extend 16) ?x324)))
(let ((?x330 (bvadd ?x329 ?x2)))
(let (($x331 (= ?x328 (_ bv1 1))))
(let ((?x332 (ite $x331 ?x330 ?x329)))
(let ((?x333 ((_ extract 31 31) ?x329)))
(let ((?x334 ((_ extract 31 31) ?x2)))
(let ((?x335 (bvadd ?x329 ?x2)))
(let ((?x336 ((_ extract 31 31) ?x335)))
(let ((?x337 (bvnot ?x336)))
(let ((?x338 (bvand ?x333 ?x334)))
(let ((?x339 (bvor ?x333 ?x334)))
(let ((?x340 (bvnot ?x339)))
(let ((?x341 (bvand ?x338 ?x337)))
(let ((?x342 (bvand ?x340 ?x336)))
(let ((?x343 (bvor ?x341 ?x342)))
(let (($x344 (= ?x343 (_ bv1 1))))
(let (($x345 (= ?x328 (_ bv1 1))))
(let (($x346 (ite $x345 $x344 $x22)))
(let (($x347 (not $x346)))
(let (($x348 (not $x323)))
(let (($x349 (or $x348 $x347)))
(let (($x350 (not $x349)))
(let (($x351 (or $x322 $x350)))
(let (($x352 (and $x323 $x347)))
(let ((?x353 ((_ extract 15 0) ?x332)))
(let ((?x354 ((_ zero_extend 16) ?x24)))
(let ((?x355 (bvand ?x354 ?x17)))
(let (($x356 (distinct ?x355 ?x1)))
(let ((?x357 (ite $x356 (_ bv1 1) (_ bv0 1))))
(let ((?x358 ((_ zero_extend 16) ?x353)))
(let ((?x359 (bvadd ?x358 ?x2)))
(let (($x360 (= ?x357 (_ bv1 1))))
(let ((?x361 (ite $x360 ?x359 ?x358)))
(let ((?x362 ((_ extract 31 31) ?x358)))
(let ((?x363 ((_ extract 31 31) ?x2)))
(let ((?x364 (bvadd ?x358 ?x2)))
(let ((?x365 ((_ extract 31 31) ?x364)))
(let ((?x366 (bvnot ?x365)))
(let ((?x367 (bvand ?x362 ?x363)))
(let ((?x368 (bvor ?x362 ?x363)))
(let ((?x369 (bvnot ?x368)))
(let ((?x370 (bvand ?x367 ?x366)))
(let ((?x371 (bvand ?x369 ?x365)))
(let ((?x372 (bvor ?x370 ?x371)))
(let (($x373 (= ?x372 (_ bv1 1))))
(let (($x374 (= ?x357 (_ bv1 1))))
(let (($x375 (ite $x374 $x373 $x22)))
(let (($x376 (not $x375)))
(let (($x377 (not $x352)))
(let (($x378 (or $x377 $x376)))
(let (($x379 (not $x378)))
(let (($x380 (or $x351 $x379)))
(let (($x381 (and $x352 $x376)))
(let ((?x382 ((_ extract 15 0) ?x361)))
(let ((?x383 ((_ zero_extend 16) ?x24)))
(let ((?x384 (bvand ?x383 ?x19)))
(let (($x385 (distinct ?x384 ?x1)))
(let ((?x386 (ite $x385 (_ bv1 1) (_ bv0 1))))
(let ((?x387 ((_ zero_extend 16) ?x382)))
(let ((?x388 (bvadd ?x387 ?x2)))
(let (($x389 (= ?x386 (_ bv1 1))))
(let ((?x390 (ite $x389 ?x388 ?x387)))
(let ((?x391 ((_ extract 31 31) ?x387)))
(let ((?x392 ((_ extract 31 31) ?x2)))
(let ((?x393 (bvadd ?x387 ?x2)))
(let ((?x394 ((_ extract 31 31) ?x393)))
(let ((?x395 (bvnot ?x394)))
(let ((?x396 (bvand ?x391 ?x392)))
(let ((?x397 (bvor ?x391 ?x392)))
(let ((?x398 (bvnot ?x397)))
(let ((?x399 (bvand ?x396 ?x395)))
(let ((?x400 (bvand ?x398 ?x394)))
(let ((?x401 (bvor ?x399 ?x400)))
(let (($x402 (= ?x401 (_ bv1 1))))
(let (($x403 (= ?x386 (_ bv1 1))))
(let (($x404 (ite $x403 $x402 $x22)))
(let (($x405 (not $x404)))
(let (($x406 (not $x381)))
(let (($x407 (or $x406 $x405)))
(let (($x408 (not $x407)))
(let (($x409 (or $x380 $x408)))
(let (($x410 (and $x381 $x405)))
(let ((?x411 ((_ extract 15 0) ?x390)))
(let ((?x412 ((_ zero_extend 16) ?x24)))
(let ((?x413 (bvand ?x412 ?x21)))
(let (($x414 (distinct ?x413 ?x1)))
(let ((?x415 (ite $x414 (_ bv1 1) (_ bv0 1))))
(let ((?x416 ((_ zero_extend 16) ?x411)))
(let ((?x417 (bvadd ?x416 ?x2)))
(let (($x418 (= ?x415 (_ bv1 1))))
(let ((?x419 (ite $x418 ?x417 ?x416)))
(let ((?x420 ((_ extract 31 31) ?x416)))
(let ((?x421 ((_ extract 31 31) ?x2)))
(let ((?x422 (bvadd ?x416 ?x2)))
(let ((?x423 ((_ extract 31 31) ?x422)))
(let ((?x424 (bvnot ?x423)))
(let ((?x425 (bvand ?x420 ?x421)))
(let ((?x426 (bvor ?x420 ?x421)))
(let ((?x427 (bvnot ?x426)))
(let ((?x428 (bvand ?x425 ?x424)))
(let ((?x429 (bvand ?x427 ?x423)))
(let ((?x430 (bvor ?x428 ?x429)))
(let (($x431 (= ?x430 (_ bv1 1))))
(let (($x432 (= ?x415 (_ bv1 1))))
(let (($x433 (ite $x432 $x431 $x22)))
(let (($x434 (not $x433)))
(let (($x435 (not $x410)))
(let (($x436 (or $x435 $x434)))
(let (($x437 (not $x436)))
(let (($x438 (or $x409 $x437)))
(let (($x439 (and $x410 $x434)))
(let ((?x440 ((_ extract 15 0) ?x419)))
(let ((?x441 ((_ zero_extend 16) ?x440)))
(let ((?x442 ((_ extract 15 0) ?x23)))
(let ((?x443 ((_ zero_extend 16) ?x442)))
(let ((?x444 (bvand ?x443 ?x20)))
(let ((?x445 ((_ zero_extend 16) ?x442)))
(let ((?x446 ((_ extract 4 0) ?x2)))
(let ((?x447 ((_ zero_extend 27) ?x446)))
(let ((?x448 (bvashr ?x445 ?x447)))
(let ((?x449 (bvand ?x448 ?x20)))
(let ((?x450 (bvadd ?x444 ?x449)))
(let ((?x451 ((_ extract 31 31) ?x444)))
(let ((?x452 ((_ extract 31 31) ?x449)))
(let ((?x453 (bvadd ?x444 ?x449)))
(let ((?x454 ((_ extract 31 31) ?x453)))
(let ((?x455 (bvnot ?x454)))
(let ((?x456 (bvand ?x451 ?x452)))
(let ((?x457 (bvor ?x451 ?x452)))
(let ((?x458 (bvnot ?x457)))
(let ((?x459 (bvand ?x456 ?x455)))
(let ((?x460 (bvand ?x458 ?x454)))
(let ((?x461 (bvor ?x459 ?x460)))
(let (($x462 (= ?x461 (_ bv1 1))))
(let (($x463 (not $x462)))
(let (($x464 (not $x439)))
(let (($x465 (or $x464 $x463)))
(let (($x466 (not $x465)))
(let (($x467 (or $x438 $x466)))
(let (($x468 (and $x439 $x463)))
(let ((?x469 ((_ extract 15 0) ?x450)))
(let ((?x470 ((_ zero_extend 16) ?x469)))
(let ((?x471 (bvand ?x470 ?x18)))
(let ((?x472 ((_ zero_extend 16) ?x469)))
(let ((?x473 ((_ extract 4 0) ?x3)))
(let ((?x474 ((_ zero_extend 27) ?x473)))
(let ((?x475 (bvashr ?x472 ?x474)))
(let ((?x476 (bvand ?x475 ?x18)))
(let ((?x477 (bvadd ?x471 ?x476)))
(let ((?x478 ((_ extract 31 31) ?x471)))
(let ((?x479 ((_ extract 31 31) ?x476)))
(let ((?x480 (bvadd ?x471 ?x476)))
(let ((?x481 ((_ extract 31 31) ?x480)))
(let ((?x482 (bvnot ?x481)))
(let ((?x483 (bvand ?x478 ?x479)))
(let ((?x484 (bvor ?x478 ?x479)))
(let ((?x485 (bvnot ?x484)))
(let ((?x486 (bvand ?x483 ?x482)))
(let ((?x487 (bvand ?x485 ?x481)))
(let ((?x488 (bvor ?x486 ?x487)))
(let (($x489 (= ?x488 (_ bv1 1))))
(let (($x490 (not $x489)))
(let (($x491 (not $x468)))
(let (($x492 (or $x491 $x490)))
(let (($x493 (not $x492)))
(let (($x494 (or $x467 $x493)))
(let (($x495 (and $x468 $x490)))
(let ((?x496 ((_ extract 15 0) ?x477)))
(let ((?x497 ((_ zero_extend 16) ?x496)))
(let ((?x498 (bvand ?x497 ?x15)))
(let ((?x499 ((_ zero_extend 16) ?x496)))
(let ((?x500 ((_ extract 4 0) ?x4)))
(let ((?x501 ((_ zero_extend 27) ?x500)))
(let ((?x502 (bvashr ?x499 ?x501)))
(let ((?x503 (bvand ?x502 ?x15)))
(let ((?x504 (bvadd ?x498 ?x503)))
(let ((?x505 ((_ extract 31 31) ?x498)))
(let ((?x506 ((_ extract 31 31) ?x503)))
(let ((?x507 (bvadd ?x498 ?x503)))
(let ((?x508 ((_ extract 31 31) ?x507)))
(let ((?x509 (bvnot ?x508)))
(let ((?x510 (bvand ?x505 ?x506)))
(let ((?x511 (bvor ?x505 ?x506)))
(let ((?x512 (bvnot ?x511)))
(let ((?x513 (bvand ?x510 ?x509)))
(let ((?x514 (bvand ?x512 ?x508)))
(let ((?x515 (bvor ?x513 ?x514)))
(let (($x516 (= ?x515 (_ bv1 1))))
(let (($x517 (not $x516)))
(let (($x518 (not $x495)))
(let (($x519 (or $x518 $x517)))
(let (($x520 (not $x519)))
(let (($x521 (or $x494 $x520)))
(let (($x522 (and $x495 $x517)))
(let ((?x523 ((_ extract 15 0) ?x504)))
(let ((?x524 ((_ zero_extend 16) ?x523)))
(let ((?x525 (bvand ?x524 ?x10)))
(let ((?x526 ((_ zero_extend 16) ?x523)))
(let ((?x527 ((_ extract 4 0) ?x5)))
(let ((?x528 ((_ zero_extend 27) ?x527)))
(let ((?x529 (bvashr ?x526 ?x528)))
(let ((?x530 (bvand ?x529 ?x10)))
(let ((?x531 (bvadd ?x525 ?x530)))
(let ((?x532 ((_ extract 31 31) ?x525)))
(let ((?x533 ((_ extract 31 31) ?x530)))
(let ((?x534 (bvadd ?x525 ?x530)))
(let ((?x535 ((_ extract 31 31) ?x534)))
(let ((?x536 (bvnot ?x535)))
(let ((?x537 (bvand ?x532 ?x533)))
(let ((?x538 (bvor ?x532 ?x533)))
(let ((?x539 (bvnot ?x538)))
(let ((?x540 (bvand ?x537 ?x536)))
(let ((?x541 (bvand ?x539 ?x535)))
(let ((?x542 (bvor ?x540 ?x541)))
(let (($x543 (= ?x542 (_ bv1 1))))
(let (($x544 (not $x543)))
(let (($x545 (not $x522)))
(let (($x546 (or $x545 $x544)))
(let (($x547 (not $x546)))
(let (($x548 (or $x521 $x547)))
(let (($x549 (and $x522 $x544)))
(let ((?x550 ((_ extract 15 0) ?x531)))
(let ((?x551 ((_ zero_extend 16) ?x550)))
(let (($x552 (= ?x441 ?x551)))
(let (($x553 (not $x549)))
(let (($x554 (or $x553 $x552)))
(let (($x555 (not $x554)))
(let (($x556 (or $x548 $x555)))
$x556
))))))))))))))))))))))))))))))))))))))))))))))))))))))))))))))))))))))))))))))))))))))))))))))))))))))))))))))))))))))))))))))))))))))))))))))))))))))))))))))))))))))))))))))))))))))))))))))))))))))))))))))))))))))))))))))))))))))))))))))))))))))))))))))))))))))))))))))))))))))))))))))))))))))))))))))))))))))))))))))))))))))))))))))))))))))))))))))))))))))))))))))))))))))))))))))))))))))))))))))))))))))))))))))))))))))))))))))))))))))))))))))))))))))))))))))))))))))))))))))))))))))))))))))))))))))))))))))))))))))))))))))))))))))))))))))))))))))))))))
)
(check-sat)
(exit)
